language Essence 1.3

letting black be {(1, 1), (1, 2), (1, 5), (2, 1), (2, 2)}
$ Visualisation for black
$ 1 1
$ 1 2
$ 1 5
$ 2 1
$ 2 2

letting white be {(3, 6), (4, 6), (5, 3), (6, 3), (6, 4)}
$ Visualisation for white
$ 3 6
$ 4 6
$ 5 3
$ 6 3
$ 6 4

